unsat
(define-fun SC ((s (_ BitVec 4)) (t (_ BitVec 4))) Bool (bvuge t s))
0.03user 0.00system 0:00.03elapsed 97%CPU (0avgtext+0avgdata 26380maxresident)k
0inputs+8outputs (0major+1237minor)pagefaults 0swaps
